11
0 40 26 38 50 39 56 27 51 42 44
40 0 24 48 24 26 42 65 39 34 10
26 24 0 75 71 61 36 45 36 20 46
38 48 75 0 85 60 51 68 59 61 57
50 24 71 85 0 18 44 39 56 70 86
39 26 61 60 18 0 50 29 28 48 25
56 42 36 51 44 50 0 54 15 65 16
27 65 45 68 39 29 54 0 68 81 18
51 39 36 59 56 28 15 68 0 35 61
42 34 20 61 70 48 65 81 35 0 67
44 10 46 57 86 25 16 18 61 67 0
